c n orig vars 62
p cnf 207 604
63 -1 0
63 -2 0
-63 1 2 0
64 -3 0
64 -4 0
-64 3 4 0
65 -5 0
65 -6 0
-65 5 6 0
66 -7 0
66 -8 0
-66 7 8 0
67 -9 0
67 -10 0
-67 9 10 0
68 -11 0
68 -12 0
-68 11 12 0
69 -13 0
69 -14 0
-69 13 14 0
70 -15 0
70 -16 0
-70 15 16 0
71 -17 0
71 -18 0
-71 17 18 0
72 -19 0
72 -20 0
-72 19 20 0
-73 63 0
-73 64 0
-73 65 0
-73 66 0
-73 67 0
-73 68 0
-73 69 0
-73 70 0
-73 71 0
-73 72 0
73 -63 -64 -65 -66 -67 -68 -69 -70 -71 -72 0
-73 0
74 -21 0
74 -28 0
74 -35 0
74 -42 0
74 -49 0
74 -56 0
-74 21 28 35 42 49 56 0
75 -22 0
75 -29 0
75 -36 0
75 -43 0
75 -50 0
75 -57 0
-75 22 29 36 43 50 57 0
76 -23 0
76 -30 0
76 -37 0
76 -44 0
76 -51 0
76 -58 0
-76 23 30 37 44 51 58 0
77 -24 0
77 -31 0
77 -38 0
77 -45 0
77 -52 0
77 -59 0
-77 24 31 38 45 52 59 0
78 -25 0
78 -32 0
78 -39 0
78 -46 0
78 -53 0
78 -60 0
-78 25 32 39 46 53 60 0
79 -26 0
79 -33 0
79 -40 0
79 -47 0
79 -54 0
79 -61 0
-79 26 33 40 47 54 61 0
80 -27 0
80 -34 0
80 -41 0
80 -48 0
80 -55 0
80 -62 0
-80 27 34 41 48 55 62 0
81 21 0
81 22 0
-81 -21 -22 0
82 21 0
82 23 0
-82 -21 -23 0
83 21 0
83 24 0
-83 -21 -24 0
84 21 0
84 25 0
-84 -21 -25 0
85 21 0
85 26 0
-85 -21 -26 0
86 21 0
86 27 0
-86 -21 -27 0
87 22 0
87 23 0
-87 -22 -23 0
88 22 0
88 24 0
-88 -22 -24 0
89 22 0
89 25 0
-89 -22 -25 0
90 22 0
90 26 0
-90 -22 -26 0
91 22 0
91 27 0
-91 -22 -27 0
92 23 0
92 24 0
-92 -23 -24 0
93 23 0
93 25 0
-93 -23 -25 0
94 23 0
94 26 0
-94 -23 -26 0
95 23 0
95 27 0
-95 -23 -27 0
96 24 0
96 25 0
-96 -24 -25 0
97 24 0
97 26 0
-97 -24 -26 0
98 24 0
98 27 0
-98 -24 -27 0
99 25 0
99 26 0
-99 -25 -26 0
100 25 0
100 27 0
-100 -25 -27 0
101 26 0
101 27 0
-101 -26 -27 0
102 28 0
102 29 0
-102 -28 -29 0
103 28 0
103 30 0
-103 -28 -30 0
104 28 0
104 31 0
-104 -28 -31 0
105 28 0
105 32 0
-105 -28 -32 0
106 28 0
106 33 0
-106 -28 -33 0
107 28 0
107 34 0
-107 -28 -34 0
108 29 0
108 30 0
-108 -29 -30 0
109 29 0
109 31 0
-109 -29 -31 0
110 29 0
110 32 0
-110 -29 -32 0
111 29 0
111 33 0
-111 -29 -33 0
112 29 0
112 34 0
-112 -29 -34 0
113 30 0
113 31 0
-113 -30 -31 0
114 30 0
114 32 0
-114 -30 -32 0
115 30 0
115 33 0
-115 -30 -33 0
116 30 0
116 34 0
-116 -30 -34 0
117 31 0
117 32 0
-117 -31 -32 0
118 31 0
118 33 0
-118 -31 -33 0
119 31 0
119 34 0
-119 -31 -34 0
120 32 0
120 33 0
-120 -32 -33 0
121 32 0
121 34 0
-121 -32 -34 0
122 33 0
122 34 0
-122 -33 -34 0
123 35 0
123 36 0
-123 -35 -36 0
124 35 0
124 37 0
-124 -35 -37 0
125 35 0
125 38 0
-125 -35 -38 0
126 35 0
126 39 0
-126 -35 -39 0
127 35 0
127 40 0
-127 -35 -40 0
128 35 0
128 41 0
-128 -35 -41 0
129 36 0
129 37 0
-129 -36 -37 0
130 36 0
130 38 0
-130 -36 -38 0
131 36 0
131 39 0
-131 -36 -39 0
132 36 0
132 40 0
-132 -36 -40 0
133 36 0
133 41 0
-133 -36 -41 0
134 37 0
134 38 0
-134 -37 -38 0
135 37 0
135 39 0
-135 -37 -39 0
136 37 0
136 40 0
-136 -37 -40 0
137 37 0
137 41 0
-137 -37 -41 0
138 38 0
138 39 0
-138 -38 -39 0
139 38 0
139 40 0
-139 -38 -40 0
140 38 0
140 41 0
-140 -38 -41 0
141 39 0
141 40 0
-141 -39 -40 0
142 39 0
142 41 0
-142 -39 -41 0
143 40 0
143 41 0
-143 -40 -41 0
144 42 0
144 43 0
-144 -42 -43 0
145 42 0
145 44 0
-145 -42 -44 0
146 42 0
146 45 0
-146 -42 -45 0
147 42 0
147 46 0
-147 -42 -46 0
148 42 0
148 47 0
-148 -42 -47 0
149 42 0
149 48 0
-149 -42 -48 0
150 43 0
150 44 0
-150 -43 -44 0
151 43 0
151 45 0
-151 -43 -45 0
152 43 0
152 46 0
-152 -43 -46 0
153 43 0
153 47 0
-153 -43 -47 0
154 43 0
154 48 0
-154 -43 -48 0
155 44 0
155 45 0
-155 -44 -45 0
156 44 0
156 46 0
-156 -44 -46 0
157 44 0
157 47 0
-157 -44 -47 0
158 44 0
158 48 0
-158 -44 -48 0
159 45 0
159 46 0
-159 -45 -46 0
160 45 0
160 47 0
-160 -45 -47 0
161 45 0
161 48 0
-161 -45 -48 0
162 46 0
162 47 0
-162 -46 -47 0
163 46 0
163 48 0
-163 -46 -48 0
164 47 0
164 48 0
-164 -47 -48 0
165 49 0
165 50 0
-165 -49 -50 0
166 49 0
166 51 0
-166 -49 -51 0
167 49 0
167 52 0
-167 -49 -52 0
168 49 0
168 53 0
-168 -49 -53 0
169 49 0
169 54 0
-169 -49 -54 0
170 49 0
170 55 0
-170 -49 -55 0
171 50 0
171 51 0
-171 -50 -51 0
172 50 0
172 52 0
-172 -50 -52 0
173 50 0
173 53 0
-173 -50 -53 0
174 50 0
174 54 0
-174 -50 -54 0
175 50 0
175 55 0
-175 -50 -55 0
176 51 0
176 52 0
-176 -51 -52 0
177 51 0
177 53 0
-177 -51 -53 0
178 51 0
178 54 0
-178 -51 -54 0
179 51 0
179 55 0
-179 -51 -55 0
180 52 0
180 53 0
-180 -52 -53 0
181 52 0
181 54 0
-181 -52 -54 0
182 52 0
182 55 0
-182 -52 -55 0
183 53 0
183 54 0
-183 -53 -54 0
184 53 0
184 55 0
-184 -53 -55 0
185 54 0
185 55 0
-185 -54 -55 0
186 56 0
186 57 0
-186 -56 -57 0
187 56 0
187 58 0
-187 -56 -58 0
188 56 0
188 59 0
-188 -56 -59 0
189 56 0
189 60 0
-189 -56 -60 0
190 56 0
190 61 0
-190 -56 -61 0
191 56 0
191 62 0
-191 -56 -62 0
192 57 0
192 58 0
-192 -57 -58 0
193 57 0
193 59 0
-193 -57 -59 0
194 57 0
194 60 0
-194 -57 -60 0
195 57 0
195 61 0
-195 -57 -61 0
196 57 0
196 62 0
-196 -57 -62 0
197 58 0
197 59 0
-197 -58 -59 0
198 58 0
198 60 0
-198 -58 -60 0
199 58 0
199 61 0
-199 -58 -61 0
200 58 0
200 62 0
-200 -58 -62 0
201 59 0
201 60 0
-201 -59 -60 0
202 59 0
202 61 0
-202 -59 -61 0
203 59 0
203 62 0
-203 -59 -62 0
204 60 0
204 61 0
-204 -60 -61 0
205 60 0
205 62 0
-205 -60 -62 0
206 61 0
206 62 0
-206 -61 -62 0
-207 74 0
-207 75 0
-207 76 0
-207 77 0
-207 78 0
-207 79 0
-207 80 0
-207 81 0
-207 82 0
-207 83 0
-207 84 0
-207 85 0
-207 86 0
-207 87 0
-207 88 0
-207 89 0
-207 90 0
-207 91 0
-207 92 0
-207 93 0
-207 94 0
-207 95 0
-207 96 0
-207 97 0
-207 98 0
-207 99 0
-207 100 0
-207 101 0
-207 102 0
-207 103 0
-207 104 0
-207 105 0
-207 106 0
-207 107 0
-207 108 0
-207 109 0
-207 110 0
-207 111 0
-207 112 0
-207 113 0
-207 114 0
-207 115 0
-207 116 0
-207 117 0
-207 118 0
-207 119 0
-207 120 0
-207 121 0
-207 122 0
-207 123 0
-207 124 0
-207 125 0
-207 126 0
-207 127 0
-207 128 0
-207 129 0
-207 130 0
-207 131 0
-207 132 0
-207 133 0
-207 134 0
-207 135 0
-207 136 0
-207 137 0
-207 138 0
-207 139 0
-207 140 0
-207 141 0
-207 142 0
-207 143 0
-207 144 0
-207 145 0
-207 146 0
-207 147 0
-207 148 0
-207 149 0
-207 150 0
-207 151 0
-207 152 0
-207 153 0
-207 154 0
-207 155 0
-207 156 0
-207 157 0
-207 158 0
-207 159 0
-207 160 0
-207 161 0
-207 162 0
-207 163 0
-207 164 0
-207 165 0
-207 166 0
-207 167 0
-207 168 0
-207 169 0
-207 170 0
-207 171 0
-207 172 0
-207 173 0
-207 174 0
-207 175 0
-207 176 0
-207 177 0
-207 178 0
-207 179 0
-207 180 0
-207 181 0
-207 182 0
-207 183 0
-207 184 0
-207 185 0
-207 186 0
-207 187 0
-207 188 0
-207 189 0
-207 190 0
-207 191 0
-207 192 0
-207 193 0
-207 194 0
-207 195 0
-207 196 0
-207 197 0
-207 198 0
-207 199 0
-207 200 0
-207 201 0
-207 202 0
-207 203 0
-207 204 0
-207 205 0
-207 206 0
207 -74 -75 -76 -77 -78 -79 -80 -81 -82 -83 -84 -85 -86 -87 -88 -89 -90 -91 -92 -93 -94 -95 -96 -97 -98 -99 -100 -101 -102 -103 -104 -105 -106 -107 -108 -109 -110 -111 -112 -113 -114 -115 -116 -117 -118 -119 -120 -121 -122 -123 -124 -125 -126 -127 -128 -129 -130 -131 -132 -133 -134 -135 -136 -137 -138 -139 -140 -141 -142 -143 -144 -145 -146 -147 -148 -149 -150 -151 -152 -153 -154 -155 -156 -157 -158 -159 -160 -161 -162 -163 -164 -165 -166 -167 -168 -169 -170 -171 -172 -173 -174 -175 -176 -177 -178 -179 -180 -181 -182 -183 -184 -185 -186 -187 -188 -189 -190 -191 -192 -193 -194 -195 -196 -197 -198 -199 -200 -201 -202 -203 -204 -205 -206 0
-207 0
